NAME : in_house_9_17
TYPE : TSP
DIMENSION : 9
EDGE_WEIGHT_TYPE : EXPLICIT
EDGE_WEIGHT_FORMAT : UPPER_ROW
COMMENT : INVERSION_SHIFT=4
EDGE_WEIGHT_SECTION
2
17
32
65
10
26
32
19
22
46
55
23
76
41
55
19
57
16
56
37
38
61
37
54
30
56
55
66
47
10
65
27
7
70
42
54
